c WARNING: for repeatability, setting FPU to use double precision
d VARIABLES            20421        
d CONSTRAINTS          78628        
c ============================[ Problem Statistics ]=============================
c |                                                                             |
c |  Number of variables:         20421                                         |
c |  Number of clauses:           78628                                         |
c |  Parse time:                   0.01 s                                       |
c |                                                                             |
c ============================[ Search Statistics ]==============================
c | Conflicts |          ORIGINAL         |          LEARNT          | Progress |
c |           |    Vars  Clauses Literals |    Limit  Clauses Lit/Cl |          |
c ===============================================================================
c |       100 |   14197    60222   147180 |    22081       99     50 | 30.478 % |
c |       250 |   14197    60208   147146 |    24289      249     57 | 30.478 % |
c |       475 |   14197    60208   147146 |    26718      474     84 | 30.478 % |
c |       812 |   14197    60208   147146 |    29390      811     80 | 30.478 % |
c |      1318 |   14197    60208   147146 |    32329     1317     81 | 30.478 % |
c |      2077 |   14197    60208   147146 |    35562     2076     76 | 30.478 % |
c |      3216 |   14197    60208   147146 |    39118     3215     79 | 30.478 % |
c |      4924 |   14197    60208   147146 |    43030     4923     75 | 30.478 % |
c |      7486 |   14197    60208   147146 |    47333     7485     75 | 30.478 % |
c |     11330 |   14197    60208   147146 |    52066    11329     72 | 30.478 % |
c |     17096 |   14197    60208   147146 |    57273    17095     67 | 30.478 % |
c |     25745 |   14197    60208   147146 |    63000    25744     61 | 30.479 % |
c |     38719 |   14197    60208   147146 |    69300    38718     56 | 30.478 % |
c |     58180 |   14197    60208   147146 |    76230    58179     54 | 30.478 % |
c |     87372 |   14197    60208   147146 |    83854    23329     45 | 30.478 % |
c ===============================================================================
c restarts              : 316
c conflicts             : 116768         (6233 /sec)
c decisions             : 177578         (0.00 % random) (9479 /sec)
c propagations          : 61901873       (3304399 /sec)
c conflict literals     : 5702229        (57.31 % deleted)
d RESTARTS             316
d FAILURES             116768       
d NODES                177578       
d BACKTRACKS           177578       
d PROPAGATIONS         61901873     
d NOGOODSIZE           48.83 
d MEMORY               39.00 
d TIME                 18.7332 

s UNSATISFIABLE
